# Solution for model 2024-11-05_18-20-39
# Objective value = 1.2895557717392778e+03
start_0 7
start_1 34
start_2 23
start_3 53
start_4 77
start_5 53
start_6 68
start_7 26
start_8 30
start_9 37
start_10 60
start_11 42
start_12 33
start_13 38
start_14 3
start_15 0
start_16 11
start_17 14
start_18 46
start_19 42
start_20 76
start_21 53
start_22 49
start_23 26
hold_0_1 0
hold_0_2 0
hold_0_3 0
hold_0_4 1
hold_0_5 0
hold_0_6 0
hold_0_7 0
hold_1_1 0
hold_1_2 0
hold_1_3 0
hold_1_4 1
hold_2_1 0
hold_2_2 0
hold_2_3 1
hold_2_4 0
hold_3_1 0
hold_3_2 0
hold_3_3 0
hold_3_4 0
hold_3_5 0
hold_3_6 0
hold_3_7 1
hold_4_1 0
hold_4_2 0
hold_4_3 1
hold_4_4 0
hold_5_1 0
hold_5_2 0
hold_5_3 0
hold_5_4 0
hold_5_5 0
hold_5_6 0
hold_5_7 1
hold_6_1 0
hold_6_2 0
hold_6_3 0
hold_6_4 0
hold_6_5 0
hold_6_6 0
hold_6_7 0
hold_6_8 0
hold_6_9 1
hold_6_10 0
hold_6_11 0
hold_6_12 0
hold_7_1 0
hold_7_2 0
hold_7_3 0
hold_7_4 1
hold_8_1 0
hold_8_2 0
hold_8_3 0
hold_8_4 1
hold_9_1 0
hold_9_2 0
hold_9_3 0
hold_9_4 0
hold_9_5 0
hold_9_6 0
hold_9_7 0
hold_9_8 0
hold_9_9 0
hold_9_10 0
hold_9_11 0
hold_9_12 1
hold_10_1 0
hold_10_2 0
hold_10_3 0
hold_10_4 0
hold_10_5 0
hold_10_6 0
hold_10_7 0
hold_10_8 1
hold_10_9 0
hold_10_10 0
hold_10_11 0
hold_10_12 0
hold_11_1 0
hold_11_2 0
hold_11_3 0
hold_11_4 0
hold_11_5 0
hold_11_6 0
hold_11_7 1
hold_12_1 0
hold_12_2 0
hold_12_3 0
hold_12_4 1
hold_13_1 0
hold_13_2 0
hold_13_3 0
hold_13_4 1
hold_14_1 0
hold_14_2 0
hold_14_3 0
hold_14_4 1
hold_14_5 0
hold_14_6 0
hold_14_7 0
hold_15_1 0
hold_15_2 0
hold_15_3 1
hold_15_4 0
hold_16_1 0
hold_16_2 0
hold_16_3 1
hold_16_4 0
hold_17_1 0
hold_17_2 0
hold_17_3 0
hold_17_4 0
hold_17_5 0
hold_17_6 0
hold_17_7 0
hold_17_8 0
hold_17_9 1
hold_17_10 0
hold_17_11 0
hold_17_12 0
hold_18_1 0
hold_18_2 0
hold_18_3 0
hold_18_4 0
hold_18_5 0
hold_18_6 0
hold_18_7 1
hold_19_1 0
hold_19_2 0
hold_19_3 0
hold_19_4 1
hold_20_1 1
hold_20_2 0
hold_20_3 0
hold_20_4 0
hold_21_1 0
hold_21_2 0
hold_21_3 0
hold_21_4 0
hold_21_5 0
hold_21_6 0
hold_21_7 1
hold_22_1 0
hold_22_2 0
hold_22_3 0
hold_22_4 1
hold_23_1 0
hold_23_2 0
hold_23_3 0
hold_23_4 0
hold_23_5 0
hold_23_6 0
hold_23_7 1
flow_source_0 0
flow_source_1 0
flow_source_2 0
flow_source_3 7.5399816523713525e-07
flow_source_4 0
flow_source_5 0
flow_source_6 0
flow_source_7 0
flow_source_8 0
flow_source_9 0
flow_source_10 0
flow_source_11 0
flow_source_12 0
flow_source_13 0
flow_source_14 0
flow_source_15 1.2895557709852797e+03
flow_source_16 0
flow_source_17 0
flow_source_18 0
flow_source_19 0
flow_source_20 0
flow_source_21 0
flow_source_22 0
flow_source_23 0
flow_0_sink 0
flow_1_sink 0
flow_2_sink 0
flow_3_sink 0
flow_4_sink 1.2895557710291782e+03
flow_5_sink 0
flow_6_sink 0
flow_7_sink 0
flow_8_sink 0
flow_9_sink 0
flow_10_sink 0
flow_11_sink 0
flow_12_sink 0
flow_13_sink 0
flow_14_sink 0
flow_15_sink 0
flow_16_sink 0
flow_17_sink 0
flow_18_sink 0
flow_19_sink 0
flow_20_sink 0
flow_21_sink 0
flow_22_sink 0
flow_23_sink 0
flow_0_1 0
flow_1_0 0
flow_0_2 0
flow_2_0 0
flow_0_3 0
flow_3_0 0
flow_0_4 0
flow_4_0 0
flow_0_5 0
flow_5_0 0
flow_0_6 0
flow_6_0 0
flow_0_7 0
flow_7_0 0
flow_0_8 0
flow_8_0 0
flow_0_9 0
flow_9_0 0
flow_0_10 0
flow_10_0 0
flow_0_11 0
flow_11_0 0
flow_0_12 0
flow_12_0 0
flow_0_13 0
flow_13_0 0
flow_0_14 0
flow_14_0 1.2895557709902796e+03
flow_0_15 0
flow_15_0 0
flow_0_16 1.2895557709902796e+03
flow_16_0 0
flow_0_17 0
flow_17_0 0
flow_0_18 0
flow_18_0 0
flow_0_19 0
flow_19_0 0
flow_0_20 0
flow_20_0 0
flow_0_21 0
flow_21_0 0
flow_0_22 0
flow_22_0 0
flow_0_23 0
flow_23_0 0
flow_1_2 0
flow_2_1 0
flow_1_3 0
flow_3_1 0
flow_1_4 0
flow_4_1 0
flow_1_5 0
flow_5_1 0
flow_1_6 0
flow_6_1 0
flow_1_7 0
flow_7_1 0
flow_1_8 0
flow_8_1 7.5785318643455707e+02
flow_1_9 0
flow_9_1 0
flow_1_10 0
flow_10_1 0
flow_1_11 0
flow_11_1 0
flow_1_12 0
flow_12_1 0
flow_1_13 7.5785318643789037e+02
flow_13_1 0
flow_1_14 0
flow_14_1 0
flow_1_15 0
flow_15_1 0
flow_1_16 0
flow_16_1 0
flow_1_17 0
flow_17_1 0
flow_1_18 0
flow_18_1 0
flow_1_19 0
flow_19_1 0
flow_1_20 0
flow_20_1 0
flow_1_21 0
flow_21_1 0
flow_1_22 0
flow_22_1 0
flow_1_23 0
flow_23_1 0
flow_2_3 0
flow_3_2 0
flow_2_4 0
flow_4_2 0
flow_2_5 0
flow_5_2 0
flow_2_6 0
flow_6_2 0
flow_2_7 7.5785318643789037e+02
flow_7_2 0
flow_2_8 0
flow_8_2 0
flow_2_9 0
flow_9_2 0
flow_2_10 0
flow_10_2 0
flow_2_11 0
flow_11_2 0
flow_2_12 0
flow_12_2 0
flow_2_13 0
flow_13_2 0
flow_2_14 0
flow_14_2 0
flow_2_15 0
flow_15_2 0
flow_2_16 0
flow_16_2 0
flow_2_17 0
flow_17_2 1.2895557709852797e+03
flow_2_18 0
flow_18_2 0
flow_2_19 0
flow_19_2 0
flow_2_20 0
flow_20_2 0
flow_2_21 0
flow_21_2 0
flow_2_22 0
flow_22_2 0
flow_2_23 5.3170258455238923e+02
flow_23_2 0
flow_3_4 0
flow_4_3 0
flow_3_5 0
flow_5_3 0
flow_3_6 0
flow_6_3 0
flow_3_7 0
flow_7_3 0
flow_3_8 0
flow_8_3 0
flow_3_9 0
flow_9_3 0
flow_3_10 2.2615060192445287e+02
flow_10_3 0
flow_3_11 0
flow_11_3 0
flow_3_12 0
flow_12_3 0
flow_3_13 0
flow_13_3 0
flow_3_14 0
flow_14_3 0
flow_3_15 0
flow_15_3 0
flow_3_16 0
flow_16_3 0
flow_3_17 0
flow_17_3 0
flow_3_18 0
flow_18_3 2.2615060117045471e+02
flow_3_19 0
flow_19_3 0
flow_3_20 0
flow_20_3 0
flow_3_21 0
flow_21_3 0
flow_3_22 0
flow_22_3 0
flow_3_23 0
flow_23_3 0
flow_4_5 0
flow_5_4 0
flow_4_6 0
flow_6_4 1.2895557710291878e+03
flow_4_7 0
flow_7_4 0
flow_4_8 0
flow_8_4 0
flow_4_9 0
flow_9_4 0
flow_4_10 0
flow_10_4 0
flow_4_11 0
flow_11_4 0
flow_4_12 0
flow_12_4 0
flow_4_13 0
flow_13_4 0
flow_4_14 0
flow_14_4 0
flow_4_15 0
flow_15_4 0
flow_4_16 0
flow_16_4 0
flow_4_17 0
flow_17_4 0
flow_4_18 0
flow_18_4 0
flow_4_19 0
flow_19_4 0
flow_4_20 0
flow_20_4 0
flow_4_21 0
flow_21_4 0
flow_4_22 0
flow_22_4 0
flow_4_23 0
flow_23_4 0
flow_5_6 0
flow_6_5 0
flow_5_7 0
flow_7_5 0
flow_5_8 0
flow_8_5 0
flow_5_9 0
flow_9_5 0
flow_5_10 5.3170258455236217e+02
flow_10_5 0
flow_5_11 0
flow_11_5 0
flow_5_12 0
flow_12_5 0
flow_5_13 0
flow_13_5 0
flow_5_14 0
flow_14_5 0
flow_5_15 0
flow_15_5 0
flow_5_16 0
flow_16_5 0
flow_5_17 0
flow_17_5 0
flow_5_18 0
flow_18_5 0
flow_5_19 0
flow_19_5 0
flow_5_20 0
flow_20_5 0
flow_5_21 0
flow_21_5 0
flow_5_22 0
flow_22_5 5.3170258455237229e+02
flow_5_23 0
flow_23_5 0
flow_6_7 0
flow_7_6 0
flow_6_8 0
flow_8_6 0
flow_6_9 0
flow_9_6 0
flow_6_10 0
flow_10_6 1.2895557710291896e+03
flow_6_11 0
flow_11_6 0
flow_6_12 0
flow_12_6 0
flow_6_13 0
flow_13_6 0
flow_6_14 0
flow_14_6 0
flow_6_15 0
flow_15_6 0
flow_6_16 0
flow_16_6 0
flow_6_17 0
flow_17_6 0
flow_6_18 0
flow_18_6 0
flow_6_19 0
flow_19_6 0
flow_6_20 0
flow_20_6 0
flow_6_21 0
flow_21_6 0
flow_6_22 0
flow_22_6 0
flow_6_23 0
flow_23_6 0
flow_7_8 7.5785318643289031e+02
flow_8_7 0
flow_7_9 0
flow_9_7 0
flow_7_10 0
flow_10_7 0
flow_7_11 0
flow_11_7 0
flow_7_12 0
flow_12_7 0
flow_7_13 0
flow_13_7 0
flow_7_14 0
flow_14_7 0
flow_7_15 0
flow_15_7 0
flow_7_16 0
flow_16_7 0
flow_7_17 0
flow_17_7 0
flow_7_18 0
flow_18_7 0
flow_7_19 0
flow_19_7 0
flow_7_20 0
flow_20_7 0
flow_7_21 0
flow_21_7 0
flow_7_22 0
flow_22_7 0
flow_7_23 0
flow_23_7 0
flow_8_9 0
flow_9_8 0
flow_8_10 0
flow_10_8 0
flow_8_11 0
flow_11_8 0
flow_8_12 0
flow_12_8 0
flow_8_13 0
flow_13_8 0
flow_8_14 0
flow_14_8 0
flow_8_15 0
flow_15_8 0
flow_8_16 0
flow_16_8 0
flow_8_17 0
flow_17_8 0
flow_8_18 0
flow_18_8 0
flow_8_19 0
flow_19_8 0
flow_8_20 0
flow_20_8 0
flow_8_21 0
flow_21_8 0
flow_8_22 0
flow_22_8 0
flow_8_23 0
flow_23_8 0
flow_9_10 0
flow_10_9 0
flow_9_11 0
flow_11_9 0
flow_9_12 0
flow_12_9 5.3170258383227360e+02
flow_9_13 0
flow_13_9 0
flow_9_14 0
flow_14_9 0
flow_9_15 0
flow_15_9 0
flow_9_16 0
flow_16_9 0
flow_9_17 0
flow_17_9 0
flow_9_18 0
flow_18_9 0
flow_9_19 0
flow_19_9 0
flow_9_20 0
flow_20_9 0
flow_9_21 0
flow_21_9 0
flow_9_22 5.3170258383226985e+02
flow_22_9 0
flow_9_23 0
flow_23_9 0
flow_10_11 0
flow_11_10 0
flow_10_12 0
flow_12_10 0
flow_10_13 0
flow_13_10 0
flow_10_14 0
flow_14_10 0
flow_10_15 0
flow_15_10 0
flow_10_16 0
flow_16_10 0
flow_10_17 0
flow_17_10 0
flow_10_18 0
flow_18_10 0
flow_10_19 0
flow_19_10 0
flow_10_20 0
flow_20_10 0
flow_10_21 0
flow_21_10 5.3170258455237456e+02
flow_10_22 0
flow_22_10 0
flow_10_23 0
flow_23_10 0
flow_11_12 0
flow_12_11 0
flow_11_13 0
flow_13_11 2.2615060189050109e+02
flow_11_14 0
flow_14_11 0
flow_11_15 0
flow_15_11 0
flow_11_16 0
flow_16_11 0
flow_11_17 0
flow_17_11 0
flow_11_18 0
flow_18_11 0
flow_11_19 0
flow_19_11 0
flow_11_20 0
flow_20_11 0
flow_11_21 0
flow_21_11 0
flow_11_22 2.2615060189051846e+02
flow_22_11 0
flow_11_23 0
flow_23_11 0
flow_12_13 0
flow_13_12 0
flow_12_14 0
flow_14_12 0
flow_12_15 0
flow_15_12 0
flow_12_16 0
flow_16_12 0
flow_12_17 0
flow_17_12 0
flow_12_18 0
flow_18_12 0
flow_12_19 0
flow_19_12 0
flow_12_20 0
flow_20_12 0
flow_12_21 0
flow_21_12 0
flow_12_22 0
flow_22_12 0
flow_12_23 0
flow_23_12 5.3170258455238923e+02
flow_13_14 0
flow_14_13 0
flow_13_15 0
flow_15_13 0
flow_13_16 0
flow_16_13 0
flow_13_17 0
flow_17_13 0
flow_13_18 0
flow_18_13 0
flow_13_19 5.3170258455238923e+02
flow_19_13 0
flow_13_20 0
flow_20_13 0
flow_13_21 0
flow_21_13 0
flow_13_22 0
flow_22_13 0
flow_13_23 0
flow_23_13 0
flow_14_15 0
flow_15_14 1.2895557709852797e+03
flow_14_16 0
flow_16_14 0
flow_14_17 0
flow_17_14 0
flow_14_18 0
flow_18_14 0
flow_14_19 0
flow_19_14 0
flow_14_20 0
flow_20_14 0
flow_14_21 0
flow_21_14 0
flow_14_22 0
flow_22_14 0
flow_14_23 0
flow_23_14 0
flow_15_16 0
flow_16_15 0
flow_15_17 0
flow_17_15 0
flow_15_18 0
flow_18_15 0
flow_15_19 0
flow_19_15 0
flow_15_20 0
flow_20_15 0
flow_15_21 0
flow_21_15 0
flow_15_22 0
flow_22_15 0
flow_15_23 0
flow_23_15 0
flow_16_17 1.2895557709902796e+03
flow_17_16 0
flow_16_18 0
flow_18_16 0
flow_16_19 0
flow_19_16 0
flow_16_20 0
flow_20_16 0
flow_16_21 0
flow_21_16 0
flow_16_22 0
flow_22_16 0
flow_16_23 0
flow_23_16 0
flow_17_18 0
flow_18_17 0
flow_17_19 0
flow_19_17 0
flow_17_20 0
flow_20_17 0
flow_17_21 0
flow_21_17 0
flow_17_22 0
flow_22_17 0
flow_17_23 0
flow_23_17 0
flow_18_19 0
flow_19_18 5.3170258455238923e+02
flow_18_20 0
flow_20_18 0
flow_18_21 3.0555198338192810e+02
flow_21_18 0
flow_18_22 0
flow_22_18 0
flow_18_23 0
flow_23_18 0
flow_19_20 0
flow_20_19 0
flow_19_21 0
flow_21_19 0
flow_19_22 0
flow_22_19 0
flow_19_23 0
flow_23_19 0
flow_20_21 0
flow_21_20 0
flow_20_22 0
flow_22_20 0
flow_20_23 0
flow_23_20 0
flow_21_22 0
flow_22_21 2.2615060117043998e+02
flow_21_23 0
flow_23_21 0
flow_22_23 0
flow_23_22 0
switch_source_0 0
switch_source_1 0
switch_source_2 0
switch_source_3 0
switch_source_4 0
switch_source_5 0
switch_source_6 0
switch_source_7 0
switch_source_8 0
switch_source_9 0
switch_source_10 0
switch_source_11 0
switch_source_12 0
switch_source_13 0
switch_source_14 0
switch_source_15 1
switch_source_16 0
switch_source_17 0
switch_source_18 0
switch_source_19 0
switch_source_20 0
switch_source_21 0
switch_source_22 0
switch_source_23 0
switch_0_sink 0
switch_1_sink 0
switch_2_sink 0
switch_3_sink 0
switch_4_sink 1
switch_5_sink 0
switch_6_sink 0
switch_7_sink 0
switch_8_sink 0
switch_9_sink 0
switch_10_sink 0
switch_11_sink 0
switch_12_sink 0
switch_13_sink 0
switch_14_sink 0
switch_15_sink 0
switch_16_sink 0
switch_17_sink 0
switch_18_sink 0
switch_19_sink 0
switch_20_sink 0
switch_21_sink 0
switch_22_sink 0
switch_23_sink 0
switch_0_1 0
switch_1_0 0
switch_0_2 0
switch_2_0 0
switch_0_3 0
switch_3_0 0
switch_0_4 0
switch_4_0 0
switch_0_5 0
switch_5_0 0
switch_0_6 0
switch_6_0 0
switch_0_7 0
switch_7_0 0
switch_0_8 0
switch_8_0 0
switch_0_9 0
switch_9_0 0
switch_0_10 0
switch_10_0 0
switch_0_11 0
switch_11_0 0
switch_0_12 0
switch_12_0 0
switch_0_13 0
switch_13_0 0
switch_0_14 0
switch_14_0 1
switch_0_15 0
switch_15_0 0
switch_0_16 1
switch_16_0 0
switch_0_17 0
switch_17_0 0
switch_0_18 0
switch_18_0 0
switch_0_19 0
switch_19_0 0
switch_0_20 0
switch_20_0 0
switch_0_21 0
switch_21_0 0
switch_0_22 0
switch_22_0 0
switch_0_23 0
switch_23_0 0
switch_1_2 0
switch_2_1 0
switch_1_3 0
switch_3_1 0
switch_1_4 0
switch_4_1 0
switch_1_5 0
switch_5_1 0
switch_1_6 0
switch_6_1 0
switch_1_7 0
switch_7_1 0
switch_1_8 0
switch_8_1 1
switch_1_9 0
switch_9_1 0
switch_1_10 0
switch_10_1 0
switch_1_11 0
switch_11_1 0
switch_1_12 0
switch_12_1 0
switch_1_13 1
switch_13_1 0
switch_1_14 0
switch_14_1 0
switch_1_15 0
switch_15_1 0
switch_1_16 0
switch_16_1 0
switch_1_17 0
switch_17_1 0
switch_1_18 0
switch_18_1 0
switch_1_19 0
switch_19_1 0
switch_1_20 0
switch_20_1 0
switch_1_21 0
switch_21_1 0
switch_1_22 0
switch_22_1 0
switch_1_23 0
switch_23_1 0
switch_2_3 0
switch_3_2 0
switch_2_4 0
switch_4_2 0
switch_2_5 0
switch_5_2 0
switch_2_6 0
switch_6_2 0
switch_2_7 1
switch_7_2 0
switch_2_8 0
switch_8_2 0
switch_2_9 0
switch_9_2 0
switch_2_10 0
switch_10_2 0
switch_2_11 0
switch_11_2 0
switch_2_12 0
switch_12_2 0
switch_2_13 0
switch_13_2 0
switch_2_14 0
switch_14_2 0
switch_2_15 0
switch_15_2 0
switch_2_16 0
switch_16_2 0
switch_2_17 0
switch_17_2 1
switch_2_18 0
switch_18_2 0
switch_2_19 0
switch_19_2 0
switch_2_20 0
switch_20_2 0
switch_2_21 0
switch_21_2 0
switch_2_22 0
switch_22_2 0
switch_2_23 1
switch_23_2 0
switch_3_4 0
switch_4_3 0
switch_3_5 0
switch_5_3 0
switch_3_6 0
switch_6_3 0
switch_3_7 0
switch_7_3 0
switch_3_8 0
switch_8_3 0
switch_3_9 0
switch_9_3 0
switch_3_10 1
switch_10_3 0
switch_3_11 0
switch_11_3 0
switch_3_12 0
switch_12_3 0
switch_3_13 0
switch_13_3 0
switch_3_14 0
switch_14_3 0
switch_3_15 0
switch_15_3 0
switch_3_16 0
switch_16_3 0
switch_3_17 0
switch_17_3 0
switch_3_18 0
switch_18_3 1
switch_3_19 0
switch_19_3 0
switch_3_20 0
switch_20_3 0
switch_3_21 0
switch_21_3 0
switch_3_22 0
switch_22_3 0
switch_3_23 0
switch_23_3 0
switch_4_5 0
switch_5_4 0
switch_4_6 0
switch_6_4 1
switch_4_7 0
switch_7_4 0
switch_4_8 0
switch_8_4 0
switch_4_9 0
switch_9_4 0
switch_4_10 0
switch_10_4 0
switch_4_11 0
switch_11_4 0
switch_4_12 0
switch_12_4 0
switch_4_13 0
switch_13_4 0
switch_4_14 0
switch_14_4 0
switch_4_15 0
switch_15_4 0
switch_4_16 0
switch_16_4 0
switch_4_17 0
switch_17_4 0
switch_4_18 0
switch_18_4 0
switch_4_19 0
switch_19_4 0
switch_4_20 0
switch_20_4 0
switch_4_21 0
switch_21_4 0
switch_4_22 0
switch_22_4 0
switch_4_23 0
switch_23_4 0
switch_5_6 0
switch_6_5 0
switch_5_7 0
switch_7_5 0
switch_5_8 0
switch_8_5 0
switch_5_9 0
switch_9_5 0
switch_5_10 1
switch_10_5 0
switch_5_11 0
switch_11_5 0
switch_5_12 0
switch_12_5 0
switch_5_13 0
switch_13_5 0
switch_5_14 0
switch_14_5 0
switch_5_15 0
switch_15_5 0
switch_5_16 0
switch_16_5 0
switch_5_17 0
switch_17_5 0
switch_5_18 0
switch_18_5 1
switch_5_19 0
switch_19_5 0
switch_5_20 0
switch_20_5 0
switch_5_21 0
switch_21_5 0
switch_5_22 0
switch_22_5 1
switch_5_23 0
switch_23_5 0
switch_6_7 0
switch_7_6 0
switch_6_8 0
switch_8_6 0
switch_6_9 0
switch_9_6 0
switch_6_10 0
switch_10_6 1
switch_6_11 0
switch_11_6 0
switch_6_12 0
switch_12_6 0
switch_6_13 0
switch_13_6 0
switch_6_14 0
switch_14_6 0
switch_6_15 0
switch_15_6 0
switch_6_16 0
switch_16_6 0
switch_6_17 0
switch_17_6 0
switch_6_18 0
switch_18_6 0
switch_6_19 0
switch_19_6 0
switch_6_20 0
switch_20_6 0
switch_6_21 0
switch_21_6 0
switch_6_22 0
switch_22_6 0
switch_6_23 0
switch_23_6 0
switch_7_8 1
switch_8_7 0
switch_7_9 0
switch_9_7 0
switch_7_10 0
switch_10_7 0
switch_7_11 0
switch_11_7 0
switch_7_12 0
switch_12_7 0
switch_7_13 0
switch_13_7 0
switch_7_14 0
switch_14_7 0
switch_7_15 0
switch_15_7 0
switch_7_16 0
switch_16_7 0
switch_7_17 0
switch_17_7 0
switch_7_18 0
switch_18_7 0
switch_7_19 0
switch_19_7 0
switch_7_20 0
switch_20_7 0
switch_7_21 0
switch_21_7 0
switch_7_22 0
switch_22_7 0
switch_7_23 0
switch_23_7 0
switch_8_9 0
switch_9_8 0
switch_8_10 0
switch_10_8 0
switch_8_11 0
switch_11_8 0
switch_8_12 0
switch_12_8 0
switch_8_13 0
switch_13_8 0
switch_8_14 0
switch_14_8 0
switch_8_15 0
switch_15_8 0
switch_8_16 0
switch_16_8 0
switch_8_17 0
switch_17_8 0
switch_8_18 0
switch_18_8 0
switch_8_19 0
switch_19_8 0
switch_8_20 0
switch_20_8 0
switch_8_21 0
switch_21_8 0
switch_8_22 0
switch_22_8 0
switch_8_23 0
switch_23_8 0
switch_9_10 0
switch_10_9 0
switch_9_11 0
switch_11_9 0
switch_9_12 0
switch_12_9 1
switch_9_13 0
switch_13_9 0
switch_9_14 0
switch_14_9 0
switch_9_15 0
switch_15_9 0
switch_9_16 0
switch_16_9 0
switch_9_17 0
switch_17_9 0
switch_9_18 0
switch_18_9 0
switch_9_19 0
switch_19_9 0
switch_9_20 0
switch_20_9 0
switch_9_21 0
switch_21_9 0
switch_9_22 1
switch_22_9 0
switch_9_23 0
switch_23_9 0
switch_10_11 0
switch_11_10 0
switch_10_12 0
switch_12_10 0
switch_10_13 0
switch_13_10 0
switch_10_14 0
switch_14_10 0
switch_10_15 0
switch_15_10 0
switch_10_16 0
switch_16_10 0
switch_10_17 0
switch_17_10 0
switch_10_18 0
switch_18_10 0
switch_10_19 0
switch_19_10 0
switch_10_20 0
switch_20_10 0
switch_10_21 0
switch_21_10 1
switch_10_22 0
switch_22_10 0
switch_10_23 0
switch_23_10 0
switch_11_12 0
switch_12_11 0
switch_11_13 0
switch_13_11 1
switch_11_14 0
switch_14_11 0
switch_11_15 0
switch_15_11 0
switch_11_16 0
switch_16_11 0
switch_11_17 0
switch_17_11 0
switch_11_18 0
switch_18_11 0
switch_11_19 0
switch_19_11 0
switch_11_20 0
switch_20_11 0
switch_11_21 0
switch_21_11 0
switch_11_22 1
switch_22_11 0
switch_11_23 0
switch_23_11 0
switch_12_13 0
switch_13_12 0
switch_12_14 0
switch_14_12 0
switch_12_15 0
switch_15_12 0
switch_12_16 0
switch_16_12 0
switch_12_17 0
switch_17_12 0
switch_12_18 0
switch_18_12 0
switch_12_19 0
switch_19_12 0
switch_12_20 0
switch_20_12 0
switch_12_21 0
switch_21_12 0
switch_12_22 0
switch_22_12 0
switch_12_23 0
switch_23_12 1
switch_13_14 0
switch_14_13 0
switch_13_15 0
switch_15_13 0
switch_13_16 0
switch_16_13 0
switch_13_17 0
switch_17_13 0
switch_13_18 0
switch_18_13 0
switch_13_19 1
switch_19_13 0
switch_13_20 0
switch_20_13 0
switch_13_21 0
switch_21_13 0
switch_13_22 0
switch_22_13 0
switch_13_23 0
switch_23_13 0
switch_14_15 0
switch_15_14 1
switch_14_16 0
switch_16_14 0
switch_14_17 0
switch_17_14 0
switch_14_18 0
switch_18_14 0
switch_14_19 0
switch_19_14 0
switch_14_20 0
switch_20_14 0
switch_14_21 0
switch_21_14 0
switch_14_22 0
switch_22_14 0
switch_14_23 0
switch_23_14 0
switch_15_16 0
switch_16_15 0
switch_15_17 0
switch_17_15 0
switch_15_18 0
switch_18_15 0
switch_15_19 0
switch_19_15 0
switch_15_20 0
switch_20_15 0
switch_15_21 0
switch_21_15 0
switch_15_22 0
switch_22_15 0
switch_15_23 0
switch_23_15 0
switch_16_17 1
switch_17_16 0
switch_16_18 0
switch_18_16 0
switch_16_19 0
switch_19_16 0
switch_16_20 0
switch_20_16 0
switch_16_21 0
switch_21_16 0
switch_16_22 0
switch_22_16 0
switch_16_23 0
switch_23_16 0
switch_17_18 0
switch_18_17 0
switch_17_19 0
switch_19_17 0
switch_17_20 0
switch_20_17 0
switch_17_21 0
switch_21_17 0
switch_17_22 0
switch_22_17 0
switch_17_23 0
switch_23_17 0
switch_18_19 0
switch_19_18 1
switch_18_20 0
switch_20_18 0
switch_18_21 1
switch_21_18 0
switch_18_22 0
switch_22_18 0
switch_18_23 0
switch_23_18 0
switch_19_20 0
switch_20_19 0
switch_19_21 0
switch_21_19 0
switch_19_22 0
switch_22_19 0
switch_19_23 0
switch_23_19 0
switch_20_21 0
switch_21_20 0
switch_20_22 0
switch_22_20 0
switch_20_23 0
switch_23_20 0
switch_21_22 0
switch_22_21 1
switch_21_23 0
switch_23_21 0
switch_22_23 0
switch_23_22 0
